 200 72 
 92 42 52 7 42 87 50 43 90 34 46 50 
 3 20 78 28 74 47 65 44 6 8 38 61 
 76 5 86 59 91 78 45 80 25 80 69 89 
 51 83 77 37 39 52 36 4 61 77 13 42 
 100 38 19 24 8 55 27 39 18 90 53 50 
 72 11 67 100 37 86 97 87 47 96 68 89 
 
 12 
 4 12 16 18 28 37 42 43 44 57 60 66 
 30 
 1 2 7 8 14 15 17 18 21 22 27 32 
 34 35 36 37 38 40 44 49 50 55 58 60 
 62 65 66 67 69 71 
 34 
 4 5 7 8 9 10 11 13 17 20 21 24 
 25 26 30 32 36 37 41 42 43 44 45 46 
 48 50 51 53 55 61 64 66 69 72 
 40 
 1 2 3 4 5 6 9 11 12 13 18 20 
 22 23 24 25 26 27 28 29 33 36 38 40 
 43 44 46 50 52 53 54 55 58 59 63 65 
 68 69 70 71 
 22 
 8 12 13 14 15 18 20 24 25 29 30 36 
 41 42 43 45 48 51 59 64 70 71 
 64 
 1 2 3 4 6 7 8 9 10 11 13 14 
 15 16 17 18 19 20 21 22 23 24 25 26 
 27 28 29 31 32 33 34 36 37 38 39 40 
 41 43 44 45 46 47 48 49 51 52 53 54 
 55 56 57 58 59 60 61 62 63 64 65 66 
 67 69 71 72 
 5 
 5 7 10 61 71 
 2 
 45 59 
 38 
 2 4 5 8 9 11 12 14 18 20 21 22 
 24 25 26 27 32 33 36 37 41 42 43 46 
 47 51 52 54 55 56 57 58 61 62 65 66 
 69 70 
 69 
 1 2 3 4 5 6 7 8 9 10 11 12 
 13 14 15 16 17 18 19 20 21 22 23 24 
 25 26 27 28 29 30 31 33 34 35 36 37 
 38 39 40 41 42 43 44 45 46 47 49 50 
 51 52 53 54 55 56 57 58 59 60 61 62 
 63 64 65 66 67 69 70 71 72 
 10 
 11 18 24 27 34 38 50 56 65 72 
 3 
 17 41 47 
 69 
 1 2 3 4 5 6 8 10 11 12 13 14 
 15 16 17 18 19 20 21 22 23 24 25 26 
 27 28 29 30 32 33 34 35 36 37 38 39 
 40 41 42 43 44 45 46 47 48 49 50 51 
 52 53 54 55 56 57 58 59 60 61 62 63 
 64 65 66 67 68 69 70 71 72 
 13 
 1 24 25 28 29 30 44 49 54 64 68 71 
 72 
 33 
 1 4 6 8 12 13 14 15 16 17 18 20 
 23 32 36 37 38 39 43 44 45 51 52 53 
 54 55 56 59 61 66 67 70 72 
 36 
 1 2 3 5 6 7 10 11 12 15 16 18 
 19 21 23 24 25 27 31 32 33 35 41 42 
 44 46 48 51 53 57 58 60 62 64 67 72 
 53 
 1 2 3 4 5 6 7 9 10 11 12 15 
 16 17 18 21 22 23 25 26 27 28 29 30 
 31 32 37 38 39 40 41 42 43 44 46 47 
 48 51 53 54 55 56 58 60 62 64 65 66 
 67 68 69 70 71 
 15 
 4 5 6 7 8 19 20 40 45 47 55 63 
 66 70 72 
 31 
 3 4 10 15 17 18 19 20 21 24 25 29 
 31 33 38 42 43 44 46 47 48 53 57 58 
 60 64 65 67 68 70 71 
 48 
 1 2 3 4 5 7 8 10 11 15 17 18 
 21 22 24 25 26 27 28 29 32 33 34 35 
 36 37 40 41 43 44 45 48 49 50 52 53 
 55 56 57 58 60 63 64 67 68 69 71 72 
 38 
 1 2 4 5 7 9 11 12 13 15 17 18 
 21 22 26 27 28 29 31 33 34 35 37 42 
 43 45 47 48 55 56 57 58 59 60 62 64 
 65 67 
 51 
 1 2 3 4 5 6 9 10 12 13 14 15 
 16 17 18 20 21 22 24 25 27 28 29 30 
 33 37 38 39 40 41 42 43 45 47 50 51 
 53 54 55 57 58 60 61 62 63 65 67 69 
 70 71 72 
 8 
 9 11 27 40 43 60 69 70 
 33 
 2 6 7 8 9 10 12 14 15 18 19 20 
 21 28 34 38 40 41 43 45 47 48 52 55 
 56 57 59 62 64 65 69 70 72 
 72 
 1 2 3 4 5 6 7 8 9 10 11 12 
 13 14 15 16 17 18 19 20 21 22 23 24 
 25 26 27 28 29 30 31 32 33 34 35 36 
 37 38 39 40 41 42 43 44 45 46 47 48 
 49 50 51 52 53 54 55 56 57 58 59 60 
 61 62 63 64 65 66 67 68 69 70 71 72 
 48 
 1 2 3 5 6 7 8 9 10 11 12 13 
 14 15 16 17 18 19 20 23 24 25 27 28 
 30 31 34 36 38 39 40 41 42 43 47 48 
 49 50 51 54 56 58 59 60 62 67 69 72 
 28 
 4 7 10 11 15 17 18 23 24 25 32 33 
 36 37 41 44 45 46 50 51 52 57 61 62 
 64 66 69 70 
 69 
 1 2 3 4 5 6 8 9 10 11 12 13 
 14 15 16 17 18 19 20 21 22 23 24 25 
 26 27 28 29 30 31 32 33 34 35 36 37 
 38 39 40 41 42 43 44 45 46 47 48 49 
 50 51 52 54 55 56 57 59 60 61 62 63 
 64 65 66 67 68 69 70 71 72 
 64 
 2 3 4 5 6 7 8 10 11 12 13 14 
 15 16 17 19 20 21 22 23 24 25 26 28 
 29 30 31 32 33 34 35 36 37 38 39 40 
 41 42 43 44 45 46 48 49 50 52 53 54 
 55 56 57 58 59 60 61 62 63 65 66 67 
 68 70 71 72 
 55 
 1 2 3 4 6 7 8 9 10 11 12 13 
 14 15 17 18 20 23 24 26 27 29 30 31 
 35 37 38 39 40 41 43 44 45 46 47 48 
 49 50 51 52 53 54 55 56 57 58 59 62 
 63 64 65 66 67 70 72 
 14 
 7 9 12 25 32 38 48 54 58 61 63 65 
 68 72 
 37 
 1 2 3 5 9 10 11 15 17 19 21 22 
 23 24 26 27 29 30 34 35 36 39 40 41 
 42 45 46 48 50 52 53 55 56 58 64 67 
 68 
 41 
 3 4 5 9 10 11 12 13 15 16 18 19 
 23 27 29 30 32 33 34 37 38 40 41 42 
 43 45 46 47 48 49 50 52 53 55 56 57 
 61 63 64 68 70 
 2 
 19 35 
 57 
 1 2 3 4 5 6 7 8 10 12 13 14 
 15 16 17 18 19 21 24 25 26 28 29 30 
 31 34 35 37 38 39 40 41 42 43 44 45 
 47 49 50 51 52 53 54 55 56 57 58 59 
 62 64 65 66 68 69 70 71 72 
 68 
 1 2 3 4 5 6 7 8 9 10 11 12 
 13 14 15 16 17 18 19 20 21 22 23 25 
 26 27 29 30 31 32 33 34 35 36 37 38 
 39 40 41 42 43 44 45 46 47 48 49 50 
 51 53 54 55 56 57 58 59 60 61 62 64 
 65 66 67 68 69 70 71 72 
 11 
 1 3 15 30 36 40 46 49 56 64 65 
 27 
 3 6 9 12 20 21 25 29 30 32 33 36 
 37 39 41 44 45 48 49 55 56 57 60 62 
 65 68 72 
 35 
 4 5 8 9 10 13 14 17 23 24 25 28 
 29 30 31 34 35 36 39 41 43 44 46 51 
 52 55 56 57 59 62 63 64 67 69 71 
 54 
 1 2 3 4 5 6 7 10 12 13 15 17 
 18 19 20 21 22 24 25 28 29 30 32 33 
 34 35 36 37 38 39 40 43 46 47 48 50 
 51 52 53 54 56 58 59 60 61 62 63 64 
 66 67 68 69 70 71 
 40 
 5 6 7 9 10 14 15 17 19 21 23 24 
 28 29 30 33 34 35 36 37 38 44 46 47 
 49 51 54 55 57 59 60 61 63 64 65 66 
 67 68 69 71 
 17 
 1 4 8 15 21 25 28 37 40 41 52 54 
 56 57 60 65 72 
 21 
 2 3 7 11 12 18 20 28 29 31 35 37 
 40 45 47 54 56 60 62 70 72 
 50 
 1 2 6 8 10 11 12 15 16 18 20 21 
 22 24 25 26 27 28 29 30 31 33 34 36 
 37 38 39 40 41 42 43 47 49 50 51 52 
 53 55 56 58 60 61 62 63 64 67 68 69 
 71 72 
 4 
 4 23 32 61 
 71 
 1 2 3 4 5 6 7 8 9 10 11 12 
 13 14 15 16 17 18 19 20 21 22 23 24 
 25 26 28 29 30 31 32 33 34 35 36 37 
 38 39 40 41 42 43 44 45 46 47 48 49 
 50 51 52 53 54 55 56 57 58 59 60 61 
 62 63 64 65 66 67 68 69 70 71 72 
 24 
 4 7 9 10 11 17 18 24 26 32 37 38 
 39 42 46 51 55 56 59 63 67 68 69 72 
 38 
 1 7 8 9 10 13 17 18 19 20 21 23 
 24 25 27 28 30 34 36 38 39 45 46 47 
 50 51 52 57 58 59 60 61 65 66 67 69 
 70 72 
 37 
 3 7 8 9 10 12 13 18 23 25 26 27 
 29 31 33 34 35 37 38 41 43 44 46 48 
 49 50 56 59 60 61 62 65 66 68 69 70 
 72 
 17 
 1 9 12 13 14 18 26 31 37 38 42 46 
 49 62 63 66 68 
 49 
 2 3 6 7 9 10 12 13 15 17 18 19 
 21 23 24 25 26 27 30 31 34 36 37 38 
 39 40 41 43 44 46 47 48 49 51 52 53 
 58 60 61 62 63 64 65 66 67 68 69 71 
 72 
 65 
 1 2 3 4 5 6 7 8 9 10 11 12 
 13 15 16 17 19 20 21 22 23 24 25 26 
 27 28 29 30 31 32 33 34 35 36 38 39 
 40 41 42 43 44 46 47 48 50 51 52 53 
 54 55 56 57 58 59 60 61 62 63 64 66 
 67 69 70 71 72 
 21 
 3 7 8 11 19 24 36 38 40 44 45 48 
 52 54 56 64 66 67 69 70 71 
 3 
 19 35 65 
 15 
 6 8 17 18 21 23 30 34 44 49 50 54 
 55 63 72 
 66 
 1 2 3 4 5 6 7 8 10 11 13 14 
 15 16 17 18 19 20 21 22 23 24 26 27 
 28 29 30 31 32 33 34 35 36 37 38 39 
 40 41 42 43 44 45 46 47 48 49 50 52 
 53 54 55 56 57 58 59 60 62 63 64 65 
 66 67 68 69 70 72 
 30 
 5 6 10 12 15 17 18 24 25 26 28 29 
 30 35 37 38 40 41 43 49 50 55 57 58 
 59 62 63 64 67 68 
 56 
 2 3 4 7 8 9 11 12 13 14 16 17 
 18 19 20 21 22 23 24 25 26 27 28 29 
 30 31 32 33 34 35 36 37 38 39 40 41 
 42 43 45 46 48 49 51 52 53 55 56 58 
 59 61 63 65 67 68 70 71 
 63 
 1 2 3 5 6 7 8 9 10 11 12 13 
 14 15 16 17 18 20 21 22 25 26 27 29 
 30 31 32 33 34 35 36 37 38 39 40 41 
 43 44 45 46 47 48 49 50 51 52 53 54 
 57 58 59 60 61 62 64 65 66 67 68 69 
 70 71 72 
 48 
 1 2 3 4 5 6 8 9 11 12 14 15 
 16 17 21 27 29 30 31 33 34 37 38 39 
 41 42 43 44 47 48 49 51 52 53 54 55 
 56 58 60 61 63 64 65 66 67 68 71 72 
 7 
 12 16 26 38 39 65 69 
 44 
 1 3 4 5 6 8 10 12 14 15 16 17 
 18 20 22 27 30 32 33 34 35 36 37 38 
 42 43 45 47 48 50 52 54 55 56 58 60 
 61 62 63 65 66 68 69 70 
 47 
 1 2 5 7 8 9 10 11 12 13 15 17 
 18 19 21 23 25 26 28 30 31 32 33 34 
 35 40 41 42 44 45 46 47 48 49 50 54 
 56 57 58 59 60 61 62 65 66 67 72 
 20 
 2 8 12 15 19 21 22 24 30 31 33 37 
 39 43 54 61 66 67 70 72 
 27 
 5 9 10 12 18 19 20 21 23 25 26 28 
 31 33 35 37 39 41 46 50 52 55 57 61 
 62 63 66 
 69 
 2 4 5 6 7 8 9 10 11 12 13 14 
 15 16 17 18 19 20 21 22 23 24 25 26 
 27 28 29 30 31 32 33 34 35 36 37 38 
 39 40 41 42 43 44 45 46 47 48 49 50 
 51 52 53 54 55 56 57 58 59 60 62 63 
 64 65 66 67 68 69 70 71 72 
 26 
 5 6 11 12 15 16 17 18 19 20 26 27 
 28 30 34 35 36 46 54 57 60 62 64 69 
 71 72 
 51 
 1 2 4 5 6 8 9 10 11 12 13 14 
 16 17 18 19 20 22 23 26 28 29 32 33 
 34 35 36 37 38 39 40 42 43 44 45 46 
 47 48 52 53 54 56 57 58 60 63 65 67 
 69 70 71 
 50 
 1 2 3 4 7 8 10 11 15 17 18 19 
 20 21 22 23 24 25 27 28 29 30 31 32 
 33 34 37 41 42 43 47 48 51 52 53 54 
 55 56 57 58 59 61 62 64 65 66 68 69 
 71 72 
 72 
 1 2 3 4 5 6 7 8 9 10 11 12 
 13 14 15 16 17 18 19 20 21 22 23 24 
 25 26 27 28 29 30 31 32 33 34 35 36 
 37 38 39 40 41 42 43 44 45 46 47 48 
 49 50 51 52 53 54 55 56 57 58 59 60 
 61 62 63 64 65 66 67 68 69 70 71 72 
 2 
 1 26 
 19 
 2 9 17 21 25 26 32 33 43 49 50 51 
 55 57 58 60 66 67 70 
 51 
 1 2 4 5 6 7 8 9 10 13 15 16 
 18 19 20 21 22 23 25 26 28 29 31 32 
 33 34 36 37 39 42 43 44 45 46 47 49 
 50 53 54 57 59 60 61 62 63 64 65 66 
 67 68 70 
 59 
 2 3 4 5 6 7 8 9 10 11 12 13 
 14 15 16 17 18 19 20 21 22 23 25 26 
 27 28 29 30 32 33 35 36 37 38 39 40 
 41 42 43 44 46 48 50 52 53 54 56 57 
 59 60 61 62 63 65 66 67 70 71 72 
 47 
 1 2 3 4 5 7 9 10 11 12 13 14 
 16 22 23 24 25 26 27 28 29 31 32 33 
 34 36 37 39 40 41 42 43 44 46 47 48 
 50 51 52 54 55 56 59 66 68 69 70 
 55 
 1 2 4 5 7 8 9 10 11 12 13 14 
 15 17 19 21 23 26 27 28 29 30 32 33 
 34 36 37 38 39 40 42 43 44 46 47 48 
 50 51 53 54 55 57 58 59 60 61 62 63 
 64 65 66 68 69 70 72 
 66 
 1 2 3 4 5 6 7 8 9 10 11 12 
 13 14 15 16 17 18 19 20 23 24 25 26 
 27 28 30 31 32 33 35 36 37 39 40 41 
 42 43 44 45 46 47 49 50 51 52 53 54 
 55 56 57 58 59 60 61 62 63 64 65 66 
 67 68 69 70 71 72 
 20 
 3 11 15 19 26 36 39 41 43 44 49 50 
 58 59 61 62 64 66 69 70 
 39 
 2 5 6 7 13 16 17 18 20 22 26 27 
 29 30 31 32 33 37 38 39 40 43 44 46 
 47 48 50 52 53 55 56 57 60 61 63 65 
 67 68 71 
 72 
 1 2 3 4 5 6 7 8 9 10 11 12 
 13 14 15 16 17 18 19 20 21 22 23 24 
 25 26 27 28 29 30 31 32 33 34 35 36 
 37 38 39 40 41 42 43 44 45 46 47 48 
 49 50 51 52 53 54 55 56 57 58 59 60 
 61 62 63 64 65 66 67 68 69 70 71 72 
 19 
 1 7 8 10 11 12 20 24 33 38 41 43 
 45 49 52 55 60 69 70 
 11 
 6 7 9 12 32 40 46 57 66 70 71 
 68 
 1 3 4 5 6 7 8 9 11 12 13 14 
 15 16 17 18 19 20 21 22 23 24 25 26 
 27 28 29 30 31 32 33 35 36 37 38 39 
 41 42 43 44 45 46 47 48 49 50 51 52 
 53 54 55 56 57 58 59 60 61 62 63 64 
 65 66 67 68 69 70 71 72 
 10 
 5 6 13 15 24 31 47 48 52 62 
 62 
 1 2 3 4 6 8 9 10 11 12 13 14 
 16 17 18 20 22 24 25 26 28 29 30 31 
 32 33 34 35 36 37 38 39 40 41 42 43 
 44 45 46 47 48 49 50 51 52 53 54 55 
 56 58 59 60 61 62 63 65 66 67 68 69 
 70 72 
 8 
 9 14 27 33 62 63 70 72 
 56 
 1 2 3 4 5 8 9 10 11 12 13 14 
 15 18 19 21 22 24 26 27 28 29 30 31 
 32 35 36 37 38 40 42 43 44 45 46 47 
 48 49 50 51 52 53 54 55 56 58 61 62 
 64 65 66 67 69 70 71 72 
 22 
 1 6 13 15 16 17 18 19 27 29 34 35 
 42 43 47 49 55 56 61 65 66 67 
 33 
 2 5 6 7 13 14 15 19 21 22 23 25 
 26 30 31 32 33 35 38 43 44 45 47 48 
 52 58 60 63 66 67 68 70 72 
 12 
 1 4 21 22 27 29 31 43 60 63 65 67 
 38 
 1 3 7 10 11 13 15 18 21 22 24 26 
 27 28 31 32 33 34 35 36 40 41 45 46 
 47 49 51 52 53 56 59 61 63 67 68 69 
 71 72 
 52 
 1 2 3 5 6 8 9 10 11 12 15 16 
 18 19 20 22 23 24 25 26 27 29 30 31 
 32 33 34 37 38 40 41 42 43 44 45 48 
 49 51 52 53 54 55 60 61 62 63 64 66 
 67 68 70 72 
 54 
 2 3 4 5 6 7 8 9 12 14 15 16 
 18 19 20 21 22 25 26 28 29 30 31 32 
 34 36 37 39 40 42 43 44 46 47 48 49 
 50 51 52 53 54 55 56 57 59 60 62 65 
 66 67 68 70 71 72 
 35 
 2 3 5 8 9 10 16 20 22 23 27 29 
 30 31 32 38 40 43 44 45 46 47 51 52 
 54 56 57 58 60 62 64 66 69 70 72 
 64 
 2 3 4 5 6 7 8 9 10 11 12 13 
 14 15 16 17 18 19 20 21 22 23 24 25 
 26 27 28 29 30 31 32 33 36 37 39 40 
 41 42 43 45 46 47 49 50 51 52 53 54 
 55 56 57 58 59 60 61 62 63 65 66 68 
 69 70 71 72 
 47 
 1 2 3 4 7 8 9 10 11 15 17 18 
 19 20 23 24 25 26 27 31 32 34 36 38 
 39 40 41 42 44 46 47 49 50 51 52 54 
 57 61 62 63 64 65 67 68 69 71 72 
 24 
 6 8 12 13 15 17 18 21 24 25 27 31 
 33 35 42 43 52 57 58 59 64 68 69 72 
 55 
 1 2 3 4 5 8 9 10 11 12 14 15 
 16 17 19 20 21 22 23 25 27 28 29 31 
 32 33 34 35 37 38 39 40 41 42 43 45 
 46 47 48 49 50 52 53 56 57 58 59 60 
 62 65 66 68 69 70 72 
 39 
 3 4 5 6 7 8 11 12 15 16 18 21 
 22 27 28 30 33 34 36 37 40 41 43 44 
 45 47 49 53 55 57 58 59 61 64 65 66 
 67 68 72 
 47 
 1 3 4 5 6 8 9 10 11 12 16 18 
 19 20 21 23 24 25 28 30 31 33 34 36 
 37 40 41 42 43 44 46 47 48 49 50 51 
 59 60 61 63 64 66 68 69 70 71 72 
 2 
 39 60 
 7 
 5 7 40 43 61 64 68 
 70 
 1 2 3 4 5 6 7 8 9 10 11 12 
 13 14 15 16 17 18 19 20 21 22 23 25 
 26 27 28 29 30 31 32 33 34 35 36 37 
 38 39 40 41 42 43 44 45 46 47 48 49 
 50 51 52 53 54 55 56 57 58 59 60 61 
 62 63 65 66 67 68 69 70 71 72 
 48 
 1 2 3 5 7 9 10 11 12 14 15 17 
 22 23 24 26 27 29 30 34 35 36 37 38 
 39 42 43 44 45 47 48 49 50 52 55 56 
 57 58 60 61 62 65 67 68 69 70 71 72 
 66 
 2 3 5 6 7 8 9 11 12 13 14 15 
 16 17 18 19 21 22 23 24 25 26 27 28 
 30 31 32 33 34 35 36 37 38 39 40 41 
 42 43 44 45 46 47 48 49 50 51 52 53 
 54 55 56 57 58 59 60 61 62 63 64 65 
 66 67 68 69 71 72 
 61 
 1 2 3 4 5 6 8 9 10 11 12 13 
 15 16 17 18 19 21 22 23 24 25 26 27 
 30 31 32 33 34 35 36 37 38 39 40 41 
 42 43 44 46 47 48 49 50 52 53 55 56 
 58 59 60 61 62 63 64 66 67 69 70 71 
 72 
 5 
 7 24 32 57 70 
 13 
 2 11 13 15 27 28 32 38 47 49 50 67 
 68 
 53 
 1 2 7 8 9 10 11 12 13 14 16 17 
 18 19 20 21 23 24 28 29 30 31 32 33 
 35 36 37 39 40 41 42 44 46 48 49 50 
 52 53 54 55 56 57 58 59 60 62 63 64 
 65 66 68 71 72 
 7 
 1 39 41 44 49 52 72 
 11 
 12 14 15 21 29 32 49 53 62 63 64 
 18 
 2 9 12 15 20 22 23 25 28 30 39 42 
 43 48 53 54 60 70 
 11 
 1 3 14 35 39 42 43 45 57 68 69 
 32 
 2 8 14 15 16 18 19 20 24 25 28 30 
 32 33 37 39 42 43 44 45 49 51 52 53 
 54 58 61 62 65 68 71 72 
 17 
 4 13 17 21 24 28 29 40 48 53 54 56 
 60 62 67 70 71 
 45 
 1 2 3 4 6 10 11 12 14 16 17 18 
 19 20 22 24 25 27 28 30 31 32 34 35 
 39 40 41 42 43 44 45 46 49 55 56 57 
 58 60 61 62 64 65 67 68 69 
 56 
 1 3 4 6 7 8 9 10 12 15 16 17 
 18 19 20 21 23 24 25 27 28 29 31 33 
 34 35 36 38 39 40 42 43 44 45 46 47 
 48 49 50 52 53 54 55 57 58 60 61 62 
 63 64 65 66 67 68 69 72 
 21 
 4 5 11 19 24 25 30 33 35 36 37 38 
 39 52 54 56 58 59 63 65 70 
 23 
 2 7 9 14 15 18 23 25 34 35 38 40 
 42 44 46 51 54 55 61 63 68 70 72 
 53 
 1 3 5 6 7 8 9 10 11 12 14 16 
 18 19 20 22 23 24 25 26 27 28 29 30 
 31 33 34 35 36 37 39 40 44 46 48 49 
 50 51 52 53 55 56 57 58 60 61 62 64 
 65 67 68 70 71 
 42 
 1 3 4 5 7 10 12 14 15 18 20 21 
 25 26 31 34 35 36 38 39 41 43 45 46 
 47 48 49 50 52 55 56 57 58 61 62 63 
 64 66 67 68 70 71 
 48 
 1 3 5 6 7 9 10 11 12 13 15 18 
 20 21 22 24 25 27 28 29 30 31 33 34 
 35 38 40 41 43 44 45 46 49 50 53 57 
 59 60 61 62 63 64 65 66 67 68 69 70 
 60 
 1 2 3 4 6 7 8 9 10 11 12 13 
 14 15 17 19 20 22 23 24 25 26 27 28 
 29 30 31 32 33 34 35 36 37 39 41 43 
 44 45 46 47 48 50 53 54 55 56 57 58 
 59 60 61 62 63 64 66 67 68 69 70 72 
 30 
 4 5 6 8 9 11 12 14 17 22 26 27 
 30 34 35 37 40 42 43 44 54 55 57 60 
 61 65 67 68 69 70 
 51 
 1 2 3 5 6 8 9 10 11 12 13 14 
 16 17 18 19 20 21 22 23 24 25 26 27 
 28 29 33 34 35 37 38 39 40 42 43 44 
 45 46 47 51 55 56 57 60 61 62 64 65 
 68 69 70 
 10 
 14 16 19 20 27 29 40 43 48 68 
 35 
 2 4 6 8 9 10 11 14 15 19 21 22 
 24 25 26 27 32 33 34 37 43 45 47 49 
 50 54 57 59 60 62 63 65 67 69 72 
 12 
 3 9 10 14 16 17 24 25 40 49 64 72 
 4 
 52 54 56 67 
 24 
 2 7 8 9 11 18 19 20 23 24 25 29 
 35 37 38 44 46 53 56 62 67 68 69 70 
 56 
 1 2 3 4 5 6 8 9 11 12 13 15 
 17 19 20 21 22 23 25 27 28 30 31 32 
 34 35 37 38 40 41 42 43 44 45 46 47 
 49 50 53 54 55 56 57 59 60 61 62 63 
 64 65 66 68 69 70 71 72 
 7 
 7 20 22 45 52 67 70 
 5 
 19 33 40 56 57 
 5 
 24 33 34 40 59 
 22 
 1 2 3 4 7 11 15 25 34 35 36 37 
 39 44 47 48 49 51 66 68 70 71 
 26 
 1 3 4 5 12 16 18 19 22 29 30 31 
 33 34 37 41 46 52 55 59 62 65 66 70 
 71 72 
 28 
 2 3 6 13 14 16 17 18 21 22 28 33 
 35 39 46 47 48 51 56 57 59 60 62 63 
 65 68 69 72 
 64 
 1 2 3 4 6 7 8 9 11 13 14 15 
 16 17 18 19 20 21 22 23 25 26 27 28 
 29 30 31 32 33 34 35 36 37 38 39 40 
 41 42 43 44 45 46 47 49 51 52 53 55 
 56 57 58 59 60 61 62 63 65 66 67 68 
 69 70 71 72 
 71 
 1 2 3 4 6 7 8 9 10 11 12 13 
 14 15 16 17 18 19 20 21 22 23 24 25 
 26 27 28 29 30 31 32 33 34 35 36 37 
 38 39 40 41 42 43 44 45 46 47 48 49 
 50 51 52 53 54 55 56 57 58 59 60 61 
 62 63 64 65 66 67 68 69 70 71 72 
 8 
 6 27 40 47 51 56 61 71 
 16 
 1 7 10 12 14 18 21 28 29 39 50 56 
 64 69 71 72 
 40 
 1 2 3 4 5 7 8 10 11 14 21 22 
 24 25 26 28 32 33 35 37 38 42 43 45 
 48 50 51 53 54 55 56 57 60 63 64 65 
 66 68 69 71 
 38 
 4 5 8 9 10 11 16 17 18 19 21 22 
 23 27 28 32 35 36 39 41 43 46 49 50 
 51 53 54 56 57 59 61 62 64 67 69 70 
 71 72 
 42 
 1 2 5 6 7 9 10 11 15 16 17 18 
 20 21 24 25 29 30 31 32 36 40 45 46 
 47 48 51 53 54 55 56 57 58 60 61 62 
 64 65 67 68 70 71 
 15 
 2 12 13 14 17 20 24 42 46 48 49 56 
 63 71 72 
 30 
 2 4 5 6 7 11 13 16 19 21 29 33 
 34 38 42 44 46 49 50 51 52 57 59 60 
 63 64 66 68 71 72 
 49 
 1 2 3 6 7 8 9 10 12 13 14 17 
 18 21 22 23 24 26 28 30 31 32 34 36 
 40 41 42 43 44 45 46 48 51 52 54 55 
 56 57 60 61 62 63 64 66 67 68 70 71 
 72 
 64 
 1 2 3 5 6 7 8 10 11 12 13 14 
 15 17 18 19 20 21 22 23 25 26 27 29 
 30 31 33 34 35 36 37 38 39 40 41 42 
 43 44 45 46 47 49 50 51 52 53 54 55 
 56 57 58 59 60 61 62 63 65 66 67 68 
 69 70 71 72 
 38 
 1 2 6 7 9 10 12 14 16 19 20 21 
 25 27 28 29 31 33 34 36 37 38 39 40 
 44 46 48 49 51 53 55 58 59 60 62 63 
 64 66 
 47 
 2 3 5 7 8 9 10 12 13 14 16 17 
 18 19 20 21 22 23 25 29 30 32 34 35 
 36 37 39 42 43 44 46 47 48 49 50 51 
 52 53 54 55 56 57 62 64 65 70 71 
 22 
 1 3 5 8 12 14 15 16 18 26 27 28 
 34 42 45 48 50 54 59 61 63 67 
 30 
 1 3 4 5 11 14 15 17 19 20 23 26 
 27 30 36 37 41 43 44 45 48 51 55 57 
 59 60 63 65 71 72 
 45 
 1 3 4 5 6 7 8 9 11 12 16 18 
 19 20 21 22 25 29 30 31 32 33 34 36 
 38 39 43 44 45 46 48 49 51 52 54 55 
 58 59 62 64 65 68 69 70 71 
 23 
 2 6 8 16 19 22 24 25 26 29 32 36 
 40 41 44 50 51 56 57 59 66 70 72 
 28 
 2 8 11 13 14 15 20 21 24 25 26 27 
 28 32 34 35 40 41 45 47 48 50 53 55 
 60 63 70 71 
 14 
 1 3 12 20 27 28 29 30 36 41 56 62 
 65 70 
 36 
 5 12 15 16 17 21 22 24 25 26 30 31 
 32 34 37 38 40 41 43 45 46 48 49 51 
 53 54 55 56 57 58 59 60 66 69 70 71 
 46 
 1 2 4 7 9 12 13 14 16 17 20 21 
 22 23 24 25 26 28 29 30 31 32 33 35 
 36 39 40 41 42 45 47 48 51 53 56 57 
 61 62 64 66 67 68 69 70 71 72 
 26 
 4 6 7 10 12 13 18 19 23 24 26 28 
 29 33 36 42 47 48 49 54 56 59 60 61 
 62 66 
 31 
 6 8 11 12 15 21 25 31 32 34 35 36 
 39 40 41 43 44 47 51 52 55 56 57 58 
 63 64 65 68 69 70 72 
 39 
 1 2 3 4 7 8 9 10 11 12 13 15 
 18 19 21 23 24 25 29 34 35 38 39 40 
 42 45 52 53 54 55 56 60 61 64 66 67 
 68 69 70 
 61 
 1 2 3 4 5 6 7 8 10 11 13 14 
 15 16 18 19 20 21 22 23 24 26 27 29 
 33 34 35 37 38 39 40 41 42 43 44 45 
 46 47 48 50 51 52 53 54 55 56 57 58 
 59 60 61 62 63 64 65 66 67 69 70 71 
 72 
 64 
 1 2 3 4 8 10 11 12 13 14 15 17 
 18 19 20 21 22 24 25 26 27 29 30 31 
 32 33 34 35 36 37 38 39 40 41 42 43 
 44 45 46 47 48 49 50 51 52 53 54 56 
 57 58 59 60 61 62 63 64 65 66 67 68 
 69 70 71 72 
 25 
 3 5 6 7 8 12 19 22 25 26 33 39 
 42 46 50 53 54 55 58 59 63 68 69 70 
 72 
 65 
 1 2 3 4 5 6 7 8 9 10 11 12 
 13 14 15 16 17 18 20 21 22 23 24 25 
 26 27 28 29 30 31 32 34 36 37 38 39 
 40 41 42 43 44 45 46 47 48 49 50 51 
 52 53 54 56 57 58 59 60 61 62 64 66 
 68 69 70 71 72 
 46 
 1 3 4 6 7 13 14 15 18 19 20 21 
 22 23 24 26 28 29 30 31 32 33 34 35 
 36 40 43 46 47 48 49 50 51 53 54 55 
 57 59 60 62 63 64 65 67 68 72 
 47 
 2 5 6 7 9 16 19 20 21 22 23 24 
 26 27 28 29 32 33 34 35 36 37 39 40 
 41 42 43 44 46 47 48 49 50 53 55 57 
 58 59 60 61 62 63 64 65 66 67 72 
 51 
 1 3 4 5 6 7 8 9 10 11 13 14 
 17 18 20 22 23 24 27 28 29 30 31 33 
 37 38 40 41 42 43 44 45 46 49 50 51 
 52 55 56 57 58 59 60 61 62 63 64 65 
 66 67 69 
 15 
 3 13 25 26 28 38 40 42 47 49 50 54 
 59 69 70 
 33 
 1 2 3 6 7 8 9 12 13 14 16 23 
 24 25 26 27 28 29 30 37 40 45 49 53 
 54 55 61 63 64 65 67 71 72 
 31 
 2 5 7 10 12 13 14 15 16 19 21 22 
 23 28 29 30 31 32 35 45 47 48 51 52 
 56 58 62 63 67 68 71 
 37 
 1 2 3 4 5 6 7 8 9 10 11 13 
 14 18 20 22 24 25 27 28 31 35 36 39 
 40 42 44 52 56 60 61 63 64 65 66 68 
 70 
 61 
 1 2 3 4 5 6 7 8 10 11 12 14 
 16 17 18 19 20 21 22 23 24 25 26 28 
 29 30 31 32 33 34 35 36 37 38 39 40 
 41 42 43 45 46 47 48 49 50 52 53 54 
 55 56 58 59 61 63 64 65 66 69 70 71 
 72 
 41 
 2 4 5 7 8 9 11 13 14 15 17 19 
 20 24 25 27 29 30 31 35 37 38 40 42 
 43 48 52 53 55 56 57 58 60 61 62 63 
 67 68 69 71 72 
 61 
 1 2 3 4 5 6 7 9 10 12 13 14 
 15 16 17 18 19 20 21 22 23 24 25 26 
 27 28 30 31 32 33 35 36 37 40 41 42 
 43 44 45 46 48 49 50 51 52 54 55 56 
 58 59 60 61 62 63 64 65 66 68 69 70 
 71 
 62 
 1 2 3 4 5 8 9 10 11 12 13 14 
 15 16 18 19 20 22 23 24 25 26 27 28 
 29 30 32 34 35 36 37 38 39 40 42 43 
 44 45 46 47 48 49 50 51 52 53 54 55 
 56 57 58 59 61 62 63 64 66 67 69 70 
 71 72 
 12 
 2 11 12 23 26 33 47 50 56 58 59 63 
 31 
 1 3 5 7 8 11 13 16 19 20 24 26 
 27 29 30 32 35 36 37 42 43 45 47 51 
 55 56 58 59 63 65 67 
 63 
 1 2 3 4 5 6 7 8 9 10 11 12 
 14 15 16 18 19 20 21 22 23 25 26 27 
 28 29 30 31 32 34 36 37 38 40 42 43 
 44 45 46 47 48 49 50 51 52 54 55 56 
 57 58 59 60 61 62 63 64 65 66 68 69 
 70 71 72 
 63 
 2 3 4 6 7 8 9 10 11 12 13 14 
 15 16 17 18 19 20 21 22 23 24 25 26 
 29 30 31 32 33 34 36 38 39 40 41 42 
 43 44 45 46 47 48 50 51 53 54 55 56 
 57 58 59 60 61 62 63 64 65 66 67 68 
 69 71 72 
 21 
 4 5 13 15 21 22 26 27 28 34 35 39 
 43 44 47 48 58 61 63 66 70 
 9 
 2 6 7 15 32 36 59 68 70 
 56 
 2 3 4 5 6 7 8 9 10 12 14 15 
 17 19 20 21 22 23 25 26 28 29 30 31 
 33 35 36 37 39 40 41 42 43 44 46 47 
 48 49 50 51 53 57 58 59 60 61 62 63 
 64 65 66 67 68 69 71 72 
 16 
 2 4 5 10 11 15 18 25 29 36 44 47 
 49 52 67 72 
 19 
 5 14 15 18 22 28 31 32 36 38 40 49 
 51 53 60 61 64 70 72 
 52 
 1 3 4 5 6 8 10 11 14 16 18 19 
 20 21 22 23 24 26 29 30 31 34 35 36 
 37 39 40 42 43 44 45 46 47 48 50 51 
 52 54 55 56 57 59 60 61 62 63 64 65 
 67 70 71 72 
 45 
 1 3 4 6 7 10 12 13 14 15 16 17 
 18 21 23 25 26 27 28 29 31 32 33 35 
 36 40 45 46 48 49 50 51 53 56 57 58 
 59 60 61 62 65 66 67 68 71 
 7 
 2 23 33 37 39 64 70 
 3 
 38 40 72 
 68 
 1 2 3 4 5 6 7 8 9 10 11 12 
 13 14 15 16 17 18 19 21 22 23 24 25 
 26 27 28 29 30 31 32 33 34 35 36 37 
 39 40 41 42 43 44 45 46 47 48 50 51 
 52 53 54 55 56 57 58 59 60 61 62 64 
 65 66 67 68 69 70 71 72 
 51 
 2 3 4 5 6 9 11 13 14 15 16 17 
 18 19 21 23 27 28 29 30 31 32 35 36 
 38 39 41 43 45 46 48 49 50 51 52 53 
 54 55 56 57 58 60 62 64 66 67 68 69 
 70 71 72 
 18 
 2 3 18 22 27 31 33 35 42 50 61 64 
 65 67 69 70 71 72 
 5 
 1 20 25 37 48 
 13 
 1 2 3 7 13 29 43 44 47 56 63 70 
 72 
 45 
 1 2 3 4 5 7 8 11 13 14 17 19 
 21 22 29 31 33 34 35 36 37 38 40 41 
 44 46 47 48 49 50 51 53 55 57 58 59 
 62 63 64 66 67 68 69 70 72 
 18 
 2 12 16 21 30 31 32 34 36 37 44 45 
 53 55 56 57 62 65 
 14 
 2 8 14 17 18 19 22 27 29 35 36 42 
 50 72 
 16 
 11 17 23 29 30 38 53 57 59 62 63 64 
 65 66 70 71 
 64 
 1 2 3 4 5 6 7 8 9 10 11 12 
 13 15 16 17 18 19 20 21 22 23 24 25 
 26 27 28 29 30 32 33 35 36 37 38 39 
 40 42 43 45 46 47 48 49 50 51 52 54 
 55 56 57 58 59 61 62 63 64 65 67 68 
 69 70 71 72 
 46 
 2 5 7 8 9 10 11 12 13 14 15 17 
 18 20 21 22 26 28 30 31 32 33 34 35 
 37 38 39 40 45 46 47 48 49 50 51 52 
 53 55 58 62 63 64 65 67 71 72 
 